Minimize
 obj: - 8 y(0) - 5 y(7) + 8 y(9) - 10 y(12) - 4 y(16) + 85 x(0) + 6 y(1)
      + 10 y(3) - 8 y(6) - 4 y(14) + 5 y(17) + 10 y(18) + 127 x(1) - y(4)
      + 8 y(5) + 4 y(11) + 9 y(15) - 2 y(19) + 114 x(2) + 8 y(2) + 99 x(3)
      + 10 y(8) + 160 x(4) - 30 x(5) - 157 x(6) - 89 x(7) - 2 y(10) - x(8)
      + 104 x(9) + 23 x(10) + 42 x(11) + 79 x(12) - 74 x(13) + 73 x(14)
      - 145 x(15) - 98 x(16) - 84 x(17) - 51 x(18) - 163 x(19) 
Subject To
 c1:  9 y(0) + 20 y(7) + 3 y(9) + 6 y(12) + 9 y(16) + 18 x(0) <= 81
 c2:  3 y(0) + 18 y(1) + 3 y(3) + 3 y(6) + 4 y(13) + 9 y(14) + 15 y(17)
      + 8 y(18) + 12 x(1) <= 63
 c3:  9 y(0) + 11 y(7) + 6 y(16) + y(1) + 11 y(6) + 15 y(13) + 3 y(14) + 2 y(4)
      + 13 y(5) + 9 y(11) + 11 y(15) + 15 y(19) + 18 x(2) <= 98
 c4:  y(0) + 17 y(9) + y(3) + 15 y(6) + 7 y(13) + 16 y(17) + 17 y(5) - y(15)
      + 14 y(2) + 3 x(3) <= 93
 c5:  15 y(1) + 9 y(14) + 6 y(11) - y(8) + 3 x(4) <= 81
 c6:  20 y(16) + 6 y(3) + 20 y(13) + 13 y(14) + 5 y(17) + 12 y(18) + 6 y(4)
      + 3 y(19) + 9 y(2) + 16 y(8) + 10 x(5) <= 88
 c7:  3 y(16) + 7 y(6) + 15 y(14) + 8 y(17) + 9 y(4) + 5 y(5) + 20 y(11)
      + 11 y(15) + 18 y(2) + 2 y(8) + 3 x(6) <= 89
 c8:  18 y(9) + 8 y(12) + 4 y(1) + 18 y(6) - y(15) + 15 y(19) + x(7) <= 68
 c9:  - y(7) + 17 y(9) + 17 y(6) + 8 y(13) + 20 y(18) + 8 y(11) + 9 y(19)
      + 3 y(8) + 11 y(10) + 7 x(8) <= 50
 c10: 10 y(7) + 5 y(12) - y(6) + 13 y(13) + 7 y(18) + 3 y(4) + 20 y(5)
      + 9 y(19) + 6 y(2) + 8 x(9) <= 62
 c11: 3 y(0) + 14 y(12) + 8 y(16) + 15 y(6) + 2 y(17) + 2 y(11) + 2 x(10) <= 56
 c12: 4 y(16) + 5 y(6) + 15 y(17) + 19 y(4) + 5 y(5) + 4 y(15) + 16 y(19)
      + 13 y(8) + 9 x(11) <= 92
 c13: 16 y(7) + 8 y(16) + 15 y(3) + 17 y(13) + 3 y(18) + 18 y(5) + 8 y(10)
      + 2 x(12) <= 53
 c14: y(0) + 18 y(7) + 18 y(12) + 2 y(3) + 8 y(13) + 5 y(4) + 2 y(5) - y(2)
      + 2 y(10) + 8 x(13) <= 76
 c15: 15 y(7) + 12 y(12) + 19 y(13) + 7 y(14) + 9 y(17) + 7 y(4) + 12 y(15)
      + 6 y(8) - x(14) <= 55
 c16: 19 y(0) + 16 y(16) + 3 y(3) + 18 y(6) + 9 y(13) - y(4) + 15 y(5)
      + 7 y(15) + 5 y(2) + 15 x(15) <= 64
 c17: 9 y(7) + 15 y(12) + 10 y(1) + 8 y(3) + 7 y(4) + 3 y(11) + y(15) + 20 y(2)
      + 5 y(10) + 18 x(16) <= 95
 c18: 11 y(9) + 9 y(12) + 2 y(1) + 2 y(13) + 11 y(17) + y(4) + 4 y(5)
      + 12 y(15) + 5 y(19) - x(17) <= 83
 c19: 15 y(12) + y(1) + y(13) + 6 y(18) + 5 y(4) + 20 y(5) + 16 y(15)
      + 17 y(19) + 11 y(8) + 8 x(18) <= 61
 c20: 20 y(0) + 13 y(7) + 5 y(9) + 11 y(12) + 13 y(16) + 13 y(1) + 13 y(3)
      + y(6) + 13 y(13) + 17 y(14) + 3 y(17) + 6 y(11) + 20 y(8) + 12 x(19)
      <= 59
 c21: 7 y(7) + 2 y(9) + 6 y(13) + 13 y(17) + 18 y(4) + 3 y(2) + 15 y(10) <= 83
 c22: 17 y(12) + 3 y(3) + y(17) + 11 y(4) - y(5) + 11 y(11) <= 66
 c23: 19 y(9) + 11 y(12) - y(16) + 4 y(1) + 8 y(6) + 9 y(13) + 20 y(2) <= 51
 c24: 7 y(0) + 6 y(12) + 11 y(13) + 18 y(14) + 3 y(17) + 17 y(5) + 14 y(15)
      + 2 y(2) + 20 y(10) <= 97
 c25: 15 y(0) + 7 y(7) + 20 y(9) + 5 y(12) + 3 y(6) + 13 y(17) - y(18)
      + 18 y(5) + 8 y(11) + 12 y(19) + 11 y(8) <= 61
 c26: 20 y(0) + 7 y(12) + 13 y(16) + 4 y(3) + 18 y(6) + 6 y(13) + 7 y(18)
      + 14 y(11) + 14 y(15) + 11 y(8) + 13 y(10) <= 73
 c27: 11 y(7) + 7 y(9) + 11 y(12) - y(16) + 10 y(6) + 16 y(13) + 9 y(17)
      + 7 y(18) + 6 y(4) + 4 y(11) + 9 y(19) + 17 y(2) + 4 y(8) <= 87
 c28: 2 y(0) + 14 y(12) + 6 y(16) + 20 y(3) + 5 y(6) + 15 y(13) + 4 y(14)
      + 12 y(17) + 13 y(18) - y(4) + 2 y(5) + 7 y(15) - y(19) <= 84
 c29: 11 y(0) + 2 y(7) + 2 y(17) + 4 y(18) + 13 y(5) + 8 y(19) + 6 y(2) <= 88
 c30: 15 y(0) + 7 y(9) + 16 y(12) + 7 y(1) + 4 y(17) + 14 y(15) - y(10) <= 98
 c31: 6 y(0) + 19 y(12) + 12 y(3) + 14 y(6) + 19 y(13) + 20 y(17) + 13 y(15)
      + 7 y(19) <= 84
 c32: 17 y(0) + 5 y(7) + 20 y(12) + 9 y(1) + 2 y(17) + 9 y(4) + 18 y(5)
      + 17 y(11) + 12 y(19) <= 94
 c33: 2 y(0) + 2 y(7) + 13 y(9) + y(16) + 18 y(11) + 5 y(15) + 19 y(8)
      + 10 y(10) <= 85
 c34: 13 y(7) + 18 y(9) + 19 y(12) + 17 y(16) + 14 y(1) + 5 y(3) + 3 y(13)
      + 9 y(4) + 11 y(11) + 12 y(15) + 10 y(2) + 18 y(8) <= 55
 c35: 17 y(0) + 18 y(7) + 20 y(12) + 4 y(16) + 15 y(1) + 15 y(13) + 14 y(18)
      - y(5) + y(15) + 15 y(2) <= 86
 c36: 9 y(0) + 19 y(7) + 18 y(12) + 10 y(3) + 17 y(14) + 17 y(17) + 20 y(11)
      + 3 y(15) + 2 y(2) <= 65
 c37: 20 y(6) + 7 y(13) + 17 y(14) + 11 y(4) + 6 y(19) + 12 y(2) + 4 y(10)
      <= 93
 c38: - y(7) + 5 y(12) + 9 y(14) + 17 y(11) + 13 y(19) + 12 y(2) + 19 y(8)
      + 18 y(10) <= 74
 c39: 2 y(9) + 15 y(16) + 20 y(1) + 5 y(6) + 20 y(13) + 13 y(4) + 6 y(15)
      + y(10) <= 83
 c40: x(0) + x(1) + x(2) + x(3) + x(4) + x(5) + x(6) + x(7) + x(8) + x(9)
      + x(10) + x(11) + x(12) + x(13) + x(14) + x(15) + x(16) + x(17) + x(18)
      + x(19) <= 6
 c41: 2 y(0) - 6 y(7) + 6 y(9) + 4 y(12) - 9 y(16) - 116 x(0) + y(1) - 3 y(3)
      - 4 y(6) - 7 y(13) - 4 y(14) - y(17) - 2 y(18) - 171 x(1) - 4 y(5)
      - 5 y(11) - 8 y(15) - 9 y(19) + 190 x(2) - 10 y(2) + 92 x(3) - 8 y(8)
      - 89 x(4) - 166 x(5) + 188 x(6) + 106 x(7) - 7 y(10) + 49 x(8) - 153 x(9)
      - 68 x(10) - 66 x(11) + 175 x(12) - 154 x(13) + 160 x(14) + 134 x(15)
      - 56 x(16) + 131 x(17) + 173 x(18) + 70 x(19) = 0
Bounds
 0 <= x(0) <= 1
 0 <= x(1) <= 1
 0 <= x(2) <= 1
 0 <= x(3) <= 1
 0 <= x(4) <= 1
 0 <= x(5) <= 1
 0 <= x(6) <= 1
 0 <= x(7) <= 1
 0 <= x(8) <= 1
 0 <= x(9) <= 1
 0 <= x(10) <= 1
 0 <= x(11) <= 1
 0 <= x(12) <= 1
 0 <= x(13) <= 1
 0 <= x(14) <= 1
 0 <= x(15) <= 1
 0 <= x(16) <= 1
 0 <= x(17) <= 1
 0 <= x(18) <= 1
 0 <= x(19) <= 1
Binaries
 x(0)  x(1)  x(2)  x(3)  x(4)  x(5)  x(6)  x(7)  x(8)  x(9)  x(10)  x(11) 
 x(12)  x(13)  x(14)  x(15)  x(16)  x(17)  x(18)  x(19) 
End
